# Red híbrida: tuberías y camiones
# 3 Desaladoras | 4 Poblados | 3 Mineras
# Oferta total: 296  |  Demanda total: 294

set N := 1 2 3 4 5 6 7 8 9 10 ;

set D := 1 2 3 ;
set P := 4 5 6 7 ;
set M := 8 9 10 ;

set E :=
    (1,6)
    (1,7)
    (1,9)
    (1,10)
    (2,4)
    (2,6)
    (2,8)
    (2,9)
    (2,10)
    (3,6)
    (4,6)
    (4,10)
    (5,4)
    (5,9)
    (6,4)
    (6,5)
    (6,7)
    (6,8)
    (6,9)
    (7,6)
    (7,10)
    (8,7)
    (8,9)
    (9,6)
    (9,8)
    (10,6)
    (10,9)
;

set ER :=
    (1,4)
    (1,5)
    (1,8)
    (2,4)
    (2,5)
    (2,7)
    (3,5)
    (3,6)
    (3,10)
    (4,5)
    (4,7)
    (5,4)
    (5,6)
    (5,7)
    (5,9)
    (6,8)
    (6,10)
    (7,4)
    (7,5)
    (7,6)
    (7,8)
    (7,9)
    (8,4)
    (8,6)
    (8,7)
    (8,9)
    (9,6)
    (9,8)
    (10,4)
    (10,5)
    (10,6)
    (10,8)
;

param S :=
    1  147
    2  80
    3  69
;

param G :=
    4  67
    5  37
    6  35
    7  34
    8  28
    9  67
    10  26
;

param f :=
    1 6  1364
    1 7  947
    1 9  907
    1 10  1419
    2 4  513
    2 6  818
    2 8  689
    2 9  1204
    2 10  588
    3 6  1630
    4 6  966
    4 10  1428
    5 4  1227
    5 9  1800
    6 4  1446
    6 5  1810
    6 7  1164
    6 8  565
    6 9  635
    7 6  1522
    7 10  785
    8 7  1695
    8 9  783
    9 6  827
    9 8  1720
    10 6  1976
    10 9  1812
;

param c :=
    1 6  1
    1 7  4
    1 9  9
    1 10  10
    2 4  3
    2 6  4
    2 8  7
    2 9  10
    2 10  8
    3 6  5
    4 6  5
    4 10  6
    5 4  4
    5 9  3
    6 4  7
    6 5  9
    6 7  1
    6 8  6
    6 9  4
    7 6  7
    7 10  4
    8 7  7
    8 9  9
    9 6  7
    9 8  8
    10 6  2
    10 9  6
;

param d := 200 ;

param g :=
    1 4  8
    1 5  2
    2 4  12
    2 5  12
    2 7  7
    3 5  7
    3 6  3
    4 5  11
    4 7  9
    5 4  12
    5 6  10
    5 7  10
    7 4  5
    7 5  7
    7 6  10
    8 4  2
    8 6  5
    8 7  9
    9 6  9
    10 4  8
    10 5  13
    10 6  12
;

param CAP := 50 ;
